120
150
22
97
46
20
30
28
31
26
69
47
34
59
48
69
80
43
41
78
89
25
99
67
28
55
51
36
58
47
45
65
84
97
56
51
37
43
31
67
55
92
58
83
84
85
67
74
55
65
65
74
41
97
52
35
51
99
28
97
51
51
57
65
80
99
51
45
34
97
37
53
42
34
56
29
34
99
51
42
42
99
93
41
56
75
64
51
39
29
41
88
65
37
62
48
41
50
41
59
42
62
46
31
99
51
25
45
48
56
58
89
37
30
31
69
80
58
36
56
99
52
